DATASET = "thpack4";
INSTANCE = "099";

WIDTH = 233;
HEIGHT = 220;
LENGTH = 587;

NO_OF_SHAPES = 10;
size = [|
  51,46,44 |
  95,92,47 |
  116,39,23 |
  51,37,32 |
  117,44,38 |
  103,89,73 |
  73,55,54 |
  116,98,40 |
  62,48,22 |
  106,38,30 |
|];

verticality = [|
  1,1,1 |
  0,1,1 |
  0,1,1 |
  1,1,1 |
  0,1,1 |
  1,1,1 |
  1,1,1 |
  0,0,1 |
  0,0,1 |
  0,1,1 |
|];

box_count = [
  26,
  14,
  10,
  14,
  10,
  13,
  13,
  8,
  12,
  14,
];
